# Objective value = 95602
x66 0
x67 1
x68 0
x69 0
x70 1
x71 0
x72 0
x73 1
x74 0
x75 1
x76 0
x77 1
x78 0
x79 1
x80 1
x81 0
x82 1
x83 0
x84 1
x85 1
x86 1
x87 0
x88 1
x89 0
x90 1
x91 1
x92 1
x93 1
x94 1
x95 0
x96 1
x97 0
x98 0
x99 0
x100 0
x101 0
x102 0
x103 1
x104 0
x105 1
x106 1
x107 1
x108 1
x109 1
x110 0
x111 0
x112 1
x113 0
x114 1
x115 1
x116 1
x117 1
x118 1
x119 0
x120 1
x121 1
x122 0
x123 1
x124 0
x125 0
x126 0
x127 0
x128 0
x129 1
x130 0
x131 0
x132 0
x133 1
x134 0
x135 1
x136 1
x137 1
x138 1
x139 1
x140 0
x141 1
x142 1
x143 0
x144 1
x145 0
x146 1
x147 0
x148 0
x149 0
x150 0
x151 0
x152 1
x153 0
x154 0
x155 1
x156 0
x157 0
x158 1
x159 0
x160 1
x161 1
x162 1
x163 1
x164 1
x165 0
x166 1
x167 1
x168 0
x169 1
x170 0
x171 0
x172 1
x173 0
x174 1
x175 1
x176 1
x177 1
x178 1
x179 0
x180 1
x181 1
x182 0
x183 1
x184 0
x185 1
x186 0
x187 1
x188 0
x189 1
x190 1
x191 1
x192 1
x193 1
x194 0
x195 1
x196 1
x197 0
x198 1
x199 0
x200 1
x201 1
x202 0
x203 1
x204 0
x205 1
x206 1
x207 1
x208 0
x209 0
x210 1
x211 0
x212 1
x213 1
x214 1
x215 1
x216 1
x217 1
x218 0
x219 1
x220 0
x221 0
x222 1
x223 0
x224 0
x225 0
x226 0
x227 1
x228 0
x229 1
x230 1
x231 1
x232 1
x233 1
x234 1
x235 0
x236 1
x237 0
x238 0
x239 0
x240 1
x241 0
x242 1
x243 0
x244 0
x245 1
x246 0
x247 0
x248 1
x249 1
x250 1
x251 0
x252 1
x253 1
x254 1
x255 1
x256 0
x257 1
x258 0
x259 0
x260 1
x261 1
x262 1
x263 0
x264 0
x265 1
x266 1
x267 1
x268 0
x269 1
x270 0
x271 1
x272 0
x273 1
x274 1
x275 1
x276 0
x277 1
x278 1
x279 1
x280 1
x281 0
x282 1
x283 0
x284 1
x285 1
x286 0
x287 1
x288 1
x289 1
x290 1
x291 0
x292 1
x293 1
x294 1
x295 0
x296 1
x297 0
x298 1
x299 1
x300 1
x301 1
x302 1
x303 0
x304 0
x305 0
x306 1
x307 0
x308 0
x309 0
x310 1
x311 0
x312 1
x313 0
x314 0
x315 0
x316 0
x317 0
x318 1
x319 1
x320 1
x321 1
x322 0
x323 1
x324 1
x325 1
x326 0
x327 1
x328 0
x329 1
x330 1
x331 1
x332 1
x333 0
x334 0
x335 1
x336 0
x337 1
x338 1
x339 0
x340 1
x341 1
x342 1
x343 0
x344 1
x345 0
x346 1
x347 1
x348 1
x349 1
x350 0
x351 1
x352 0
x353 1
x354 1
x355 0
x356 1
x357 1
x358 1
x359 1
x360 1
x361 0
x362 1
x363 0
x364 1
x365 1
x366 1
x367 1
x368 0
x369 1
x370 1
x371 0
x372 0
x373 1
x374 0
x375 1
x376 1
x377 1
x378 1
x379 1
x380 0
x381 1
x382 0
x383 1
x384 1
x385 1
x386 1
x387 0
x388 1
x389 1
x390 1
x391 0
x392 1
x393 1
x394 0
x395 1
x396 1
x397 1
x398 1
x399 1
x400 0
x401 1
x402 0
x403 1
x404 1
x405 1
x406 1
x407 0
x408 1
x409 1
x410 1
x411 1
x412 1
x413 0
x414 1
x415 1
x416 0
x417 0
x418 0
x419 0
x420 0
x421 1
x422 0
x423 1
x424 0
x425 0
x426 0
x427 0
x428 1
x429 0
x430 0
x431 0
x432 0
x433 0
x434 1
x435 0
x436 1
x437 0
x438 0
x439 0
x440 0
x441 0
x442 1
x443 0
x444 1
x445 0
x446 1
x447 0
x448 1
x449 1
x450 1
x451 1
x452 1
x453 0
x454 1
x455 1
x456 0
x457 0
x458 1
x459 0
x460 1
x461 1
x462 1
x463 1
x464 1
x465 0
x466 1
x467 1
x468 0
x469 1
x470 0
x471 1
x472 0
x473 1
x474 1
x475 0
x476 1
x477 1
x478 0
x479 1
x480 1
x481 0
x482 1
x483 1
x484 0
x485 1
x486 1
x487 1
x488 1
x489 0
x490 1
x491 0
x492 1
x493 1
x494 1
x495 0
x496 1
x497 1
x498 1
x499 0
x500 0
x501 1
x502 1
x503 1
x504 0
x505 1
x506 0
x507 1
x508 1
x509 1
x510 0
x511 1
x512 1
x513 1
x514 1
x515 1
x516 0
x517 0
x518 0
x519 0
x520 1
x521 1
x522 1
x523 0
x524 0
x525 0
x526 1
x527 0
x528 0
x529 0
x530 0
x531 0
x532 0
x533 1
x534 1
x535 1
x536 1
x537 0
x538 1
x539 0
x540 1
x541 1
x542 1
x543 0
x544 1
x545 1
x546 1
x547 1
x548 1
x549 0
x550 0
x551 1
x552 1
x553 0
x554 1
x555 0
x556 1
x557 0
x558 1
x559 1
x560 1
x561 0
x562 1
x563 1
x564 1
x565 1
x566 1
x567 0
x568 1
x569 0
x570 1
x571 1
x572 0
x573 1
x574 1
x575 1
x576 0
x577 1
x578 1
x579 1
x580 0
x581 1
x582 1
x583 1
x584 1
x585 1
x586 0
x587 1
x588 1
x589 0
x590 1
x591 1
x592 0
x593 1
x594 1
x595 1
x596 0
x597 1
x598 1
x599 1
x600 0
x601 1
x602 1
x603 1
x604 1
x605 1
x606 0
x607 1
x608 1
x609 1
x610 1
x611 0
x612 0
x613 1
x614 0
x615 0
x616 0
x617 1
x618 0
x619 0
x620 1
x621 1
x622 0
x623 0
x624 0
x625 0
x626 0
x627 1
x628 0
x629 0
x630 0
x631 0
x632 0
x633 1
x634 0
x635 1
x636 1
x637 1
x638 1
x639 1
x640 1
x641 1
x642 0
x643 0
x644 1
x645 1
x646 1
x647 1
x648 1
x649 0
x650 1
x651 1
x652 1
x653 1
x654 0
x655 1
x656 0
x657 1
x658 0
x659 0
x660 0
x661 1
x662 0
x663 0
x664 0
x665 1
x666 1
x667 0
x668 0
x669 0
x670 0
x671 0
x672 1
x673 0
x674 0
x675 0
x676 0
x677 1
x678 0
x679 0
x680 0
x681 0
x682 1
x683 1
x684 1
x685 1
x686 1
x687 1
x688 1
x689 0
x690 0
x691 1
x692 1
x693 1
x694 1
x695 1
x696 0
x697 1
x698 1
x699 1
x700 1
x701 0
x702 1
x703 0
x704 0
x705 1
x706 0
x707 1
x708 1
x709 1
x710 1
x711 1
x712 1
x713 1
x714 0
x715 0
x716 1
x717 1
x718 1
x719 1
x720 1
x721 0
x722 1
x723 1
x724 1
x725 1
x726 0
x727 1
x728 0
x729 1
x730 0
x731 1
x732 0
x733 1
x734 1
x735 1
x736 1
x737 1
x738 0
x739 1
x740 0
x741 0
x742 1
x743 1
x744 1
x745 1
x746 1
x747 0
x748 1
x749 0
x750 1
x751 1
x752 1
x753 1
x754 1
x755 0
x756 1
x757 1
x758 0
x759 1
x760 1
x761 1
x762 1
x763 0
x764 1
x765 0
x766 1
x767 0
x768 1
x769 1
x770 1
x771 1
x772 1
x773 0
x774 1
x775 1
x776 0
x777 1
x778 1
x779 1
x780 1
x781 1
x782 1
x783 1
x784 1
x785 0
x786 1
x787 0
x788 0
x789 1
x790 0
x791 0
x792 1
x793 0
x794 0
x795 1
x796 0
x797 0
x798 0
x799 1
x800 0
x801 0
x802 0
x803 0
x804 0
x805 1
x806 1
x807 1
x808 1
x809 0
x810 1
x811 0
x812 1
x813 1
x814 1
x815 1
x816 1
x817 0
x818 1
x819 1
x820 1
x821 1
x822 1
x823 1
x824 0
x825 1
x826 1
x827 0
x828 0
x829 0
x830 1
x831 0
x832 1
x833 0
x834 0
x835 0
x836 0
x837 0
x838 1
x839 0
x840 0
x841 1
x842 0
x843 0
x844 0
x845 1
x846 0
x847 0
x848 1
x849 1
x850 1
x851 1
x852 0
x853 0
x854 0
x855 1
x856 1
x857 1
x858 1
x859 1
x860 0
x861 1
x862 1
x863 1
x864 1
x865 1
x866 1
x867 0
x868 1
x869 0
x870 0
x871 1
x872 1
x873 1
x874 1
x875 0
x876 1
x877 0
x878 1
x879 1
x880 1
x881 1
x882 1
x883 0
x884 1
x885 0
x886 1
x887 1
x888 1
x889 1
x890 0
x891 1
x892 0
x893 1
x894 1
x895 0
x896 0
x897 1
x898 0
x899 1
x900 0
x901 1
x902 0
x903 0
x904 0
x905 1
x906 0
x907 0
x908 0
x909 0
x910 1
x911 0
x912 0
x913 0
x914 1
x915 0
x916 1
x917 0
x918 0
x919 0
x920 1
x921 1
x922 0
x923 1
x924 1
x925 1
x926 0
x927 1
x928 1
x929 1
x930 1
x931 1
x932 1
x933 1
x934 1
x935 0
x936 1
x937 1
x938 1
x939 0
x940 1
x941 0
x942 1
x943 1
x944 0
x945 0
x946 1
x947 1
x948 0
x949 1
x950 1
x951 1
x952 0
x953 1
x954 1
x955 1
x956 1
x957 0
x958 1
x959 1
x960 1
x961 0
x962 1
x963 1
x964 1
x965 0
x966 1
x967 0
x968 1
x969 1
x970 0
x971 1
x972 0
x973 1
x974 1
x975 0
x976 1
x977 1
x978 1
x979 0
x980 1
x981 1
x982 0
x983 1
x984 1
x985 1
x986 1
x987 1
x988 0
x989 1
x990 1
x991 1
x992 0
x993 1
x994 0
x995 1
x996 1
x997 0
x998 1
x999 1
x1000 0
x1001 1
x1002 0
x1003 1
x1004 1
x1005 1
x1006 1
x1007 1
x1008 1
x1009 1
x1010 0
x1011 0
x1012 1
x1013 1
x1014 0
x1015 1
x1016 1
x1017 1
x1018 1
x1019 1
x1020 0
x1021 1
x1022 0
x1023 1
x1024 1
x1025 0
x1026 1
x1027 1
x1028 1
x1029 0
x1030 1
x1031 0
x1032 1
x1033 1
x1034 1
x1035 0
x1036 1
x1037 1
x1038 1
x1039 0
x1040 1
x1041 1
x1042 1
x1043 0
x1044 1
x1045 1
x1046 1
x1047 1
x1048 1
x1049 0
x1050 1
x1051 0
x1052 1
x1053 1
x1054 0
x1055 1
x1056 1
x1057 1
x1058 1
x1059 1
x1060 1
x1061 1
x1062 0
x1063 0
x1064 0
x1065 0
x1066 0
x1067 0
x1068 0
x1069 1
x1070 0
x1071 1
x1072 0
x1073 1
x1074 0
x1075 0
x1076 0
x1077 0
x1078 0
x1079 1
x1080 0
x1081 1
x1082 0
x1083 0
x1084 1
x1085 0
x1086 0
x1087 0
x1088 0
x1089 0
x1090 0
x1091 1
x1092 0
x1093 1
x1094 1
x1095 1
x1096 1
x1097 1
x1098 1
x1099 1
x1100 0
x1101 1
x1102 1
x1103 1
x1104 0
x1105 1
x1106 1
x1107 1
x1108 1
x1109 1
x1110 0
x1111 1
x1112 0
x1113 1
x1114 1
x1115 0
x1116 1
x1117 1
x1118 1
x1119 1
x1120 1
x1121 0
x1 1
x2 0
x3 1
x4 0
x5 0
x6 0
x7 0
x8 0
x9 1
x10 0
x11 0
x12 1
x13 0
x14 1
x15 0
x16 0
x17 0
x18 0
x19 0
x20 1
x21 0
x22 1
x23 0
x24 0
x25 0
x26 0
x27 1
x28 0
x29 0
x30 0
x31 0
x32 0
x33 1
x34 1
x35 0
x36 0
x37 0
x38 0
x39 0
x40 1
x41 0
x42 0
x43 0
x44 0
x45 1
x46 0
x47 1
x48 0
x49 0
x50 0
x51 0
x52 0
x53 1
x54 0
x55 1
x56 0
x57 0
x58 1
x59 0
x60 0
x61 0
x62 0
x63 0
x64 1
x65 0
